
Value of objective function: 164200.00000000

Actual values of the variables:
y1                              0
z1                              0
t1                          10500
y2                              0
z2                              0
t2                           4200
y3                              0
z3                              0
t3                          14700
y4                              0
z4                        1357.14
t4                           5100
y5                              0
z5                        1414.29
t5                              0
y6                              0
z6                        1571.43
t6                          12000
y7                              0
z7                        1328.57
t7                          12000
y8                              0
z8                        785.714
t8                          12000
y9                              0
z9                        842.857
t9                          12000
y10                             0
z10                           400
t10                             0
y11                             0
z11                             0
t11                          3300
y12                             0
z12                             0
t12                         16800
x0                           5800
x1                           5300 => x1 /20 = 265
x2                           5100 => x2 /20 = 255
x3                           4400 => x3 /20 = 220
x4                        4157.14 => x4 /20 = 207
x5                        4157.14 => x5 /20 = 208
x6                        4957.14 => x6 /20 = 248
x7                        5757.14 => x7 /20 = 288
x8                        6557.14 => x8 /20 = 328
x9                        7357.14 => x9 /20 = 368
x10                       7357.14 => x10/20 = 368
x11                          7200 => x11/20 = 360
x12                          6400 => x12/20 = 320
z0                              0
d1                           5300
d2                           5100
d3                           4400
d4                           2800
d5                           4100
d6                           4800
d7                           6000
d8                           7100
d9                           7300
d10                          7800
d11                          7600
d12                          6400
